rectOffsets = 
    [|0,0,3,3|0,0,3,3|0,0,3,4|0,0,4,3|0,0,3,5|0,0,5,3|0,0,3,6|0,0,6,3|0,0,3,7|0,0,7,3|0,0,3,8|0,0,8,3|0,0,3,9|0,0,9,3|0,0,3,10|0,0,10,3|0,0,3,13|0,0,13,3|0,0,3,14|0,0,14,3|0,0,3,15|0,0,15,3|0,0,3,17|0,0,17,3|0,0,3,24|0,0,24,3|0,0,3,30|0,0,30,3|0,0,3,33|0,0,33,3|0,0,4,3|0,0,3,4|0,0,4,4|0,0,4,4|0,0,4,6|0,0,6,4|0,0,4,10|0,0,10,4|0,0,4,12|0,0,12,4|0,0,4,14|0,0,14,4|0,0,4,17|0,0,17,4|0,0,7,33|0,0,33,7|];

shape = array1d(1..46, [{1}, {2}, {3}, {4}, {5}, {6}, {7}, {8}, {9}, {10},
    {11}, {12}, {13}, {14}, {15}, {16}, {17}, {18}, {19}, {20}, {21},
    {22}, {23}, {24}, {25}, {26}, {27}, {28}, {29}, {30}, {31}, {32},
    {33}, {34}, {35}, {36}, {37}, {38}, {39}, {40}, {41}, {42}, {43},
    {44}, {45}, {46}]);

validshapes = array1d(1..23, [{1,2}, {3,4}, {5,6}, {7,8}, {9,10}, {11,12}, {13,14},
    {15,16}, {17,18}, {19,20}, {21,22}, {23,24}, {25,26}, {27,28},
    {29,30}, {31,32}, {33,34}, {35,36}, {37,38}, {39,40}, {41,42},
    {43,44}, {45,46}]);

dx = array1d(1..23, [3, 3, 3, 3, 3, 3, 3, 3, 3, 3, 3, 3, 3, 3, 3, 4, 4, 4,
    4, 4, 4, 4, 7]);

dy = array1d(1..23, [3, 4, 5, 6, 7, 8, 9, 10, 13, 14, 15, 17, 24, 30, 33,
    3, 4, 6, 10, 12, 14, 17, 33]);

w = 33;

n = 23;

o = 46;

